n = 70;
capacity = 100;
size = [80, 79, 79, 79, 78, 78, 77, 77, 76, 75, 75, 75, 74, 72, 71, 70, 64, 64, 61, 59, 58, 58, 58, 57, 56, 56, 54, 53, 52, 51, 50, 50, 50, 50, 49, 48, 48, 48, 46, 45, 45, 44, 43, 42, 42, 42, 41, 41, 39, 37, 37, 35, 35, 33, 32, 31, 30, 29, 29, 28, 28, 27, 25, 23, 23, 22, 21, 21, 20, 20];
